(set-info :smt-lib-version 2.6)
(set-logic QF_SLIA)
(set-info :source |
Generated by: Quang Loc Le
Generated on: 2018-10-22
Application: Word equations in a decidable fragment
Target solver: Kepler_22
Publication: "A decision procedure for string logic with quadratic equations, regular expressions and length constraints" by Q.L. Le and M. He, APLAS 2018.
|)
(set-info :license "https://creativecommons.org/licenses/by/4.0/")
(set-info :category "crafted")
(set-info :status unknown)

(declare-fun  x1 () String )
(declare-fun  x2 () String )
(declare-fun  z () String )
(declare-fun  t1 () String )
(declare-fun  t2 () String )
(declare-fun  t3 () String )
(declare-fun  t4 () String )
(declare-fun  t5 () String )
(declare-fun  t6 () String )
(declare-fun  t7 () String )
(assert ( =( str.++( str.++( str.++( str.++ "ab"  z  ) ( str.++ x1  "abdc"  )  )  x2  ) ( str.++ t2  t3  )  ) ( str.++( str.++ z  "ba"  ) ( str.++( str.++( str.++ x2  "ddba"  )  x1  ) ( str.++( str.++ t6  t1  ) ( str.++( str.++ t7  t5  )  t4  )  )  )  )  ) )
(check-sat)

(exit)
